unsat
(define-fun InvF ((x Int) (n Int) (m Int)) Bool (let ((_let_1 (* (- 1) m))) (and (>= m 0) (>= (+ x _let_1) 0) (or (>= (+ n _let_1) 1) (not (>= (+ x (* (- 1) n)) 0)) (not (>= n 1))))))
4.70user 0.00system 0:04.71elapsed 99%CPU (0avgtext+0avgdata 41044maxresident)k
0inputs+8outputs (0major+4967minor)pagefaults 0swaps
